50, 621
17, 12
53, 48
11, 6
29, 24
37, 32
7, 2
51, 46
19, 14
7, 2
19, 14
31, 26
9, 4
43, 38
53, 48
51, 46
13, 8
41, 36
47, 42
13, 8
41, 36
19, 14
49, 44
15, 10
31, 26
27, 22
35, 30
39, 34
51, 46
31, 26
21, 16
53, 48
39, 34
43, 38
7, 2
39, 34
7, 2
47, 42
33, 28
31, 26
13, 8
11, 6
37, 32
43, 38
27, 22
23, 18
35, 30
51, 46
19, 14
15, 10
9, 4
